Route #1: 0 40 7 23 1 5 11 26 0
Route #2: 0 12 4 24 22 38 0
Route #3: 0 39 13 8 9 15 42 33 6 2 0
Route #4: 0 18 16 20 17 25 32 0
Route #5: 0 35 14 43 31 36 10 0
Route #6: 0 34 29 19 30 37 0
Route #7: 0 28 3 41 27 44 21 0
Cost 1568:
